benchmarks/VRPTW/TSPTW/solution/n60w20.002.txt.solution
1 55 27 37 16 60 3 39 51 28 33 26 57 40 32 25 47 30 8 21 58 18 56 29 23 35 12 10 5 11 52 6 46 34 42 31 43 9 59 54 14 44 2 45 49 15 50 22 13 41 24 48 20 36 19 17 4 7 38 61 53 
605
